




























































































66 30 63 2 
33 9 31 36 
20 57 44 
68 14 27 10 
46 75 39 
19 40 41 
45 0 56 42 
17 11 50 74 
76 43 69 
64 62 7 47 
28 52 54 
3 4 34 48 
53 55 59 21 
15 26 51 
22 25 71 
18 5 58 8 
60 23 65 
38 32 1 72 
67 6 49 
29 35 16 
37 73 61 
70 12 13 24 
